DIMENSION: 14
EDGE_WEIGHT_TYPE: EXPLICIT
EDGE_WEIGHT_FORMAT: FULL_MATRIX
EDGE_WEIGHT_SECTION:
32767 32767 32767 32767 32767 32767 66 89 56 32767 4 32767 32767 32767 
32767 32767 32767 24 92 96 32767 32767 32767 32767 32767 46 87 32767 
32767 32767 32767 5 32767 22 50 32767 32767 81 46 32767 63 32767 
32767 24 5 32767 7 32767 48 32767 32767 32767 32767 52 41 32767 
32767 92 32767 7 32767 97 32767 32767 32767 32767 32767 79 78 32767 
32767 96 22 32767 97 32767 99 32767 95 17 32767 32767 7 70 
66 32767 50 48 32767 99 32767 91 32767 31 75 91 96 32767 
89 32767 32767 32767 32767 32767 91 32767 32767 22 32767 72 69 35 
56 32767 32767 32767 32767 95 32767 32767 32767 32767 32767 32767 32767 67 
32767 32767 81 32767 32767 17 31 22 32767 32767 32767 32767 32767 32767 
4 32767 46 32767 32767 32767 75 32767 32767 32767 32767 13 42 32767 
32767 46 32767 52 79 32767 91 72 32767 32767 13 32767 32767 36 
32767 87 63 41 78 7 96 69 32767 32767 42 32767 32767 32767 
32767 32767 32767 32767 32767 70 32767 35 67 32767 32767 36 32767 32767 
EOF